NAME 
ROWS
 N  OBJ
 L  R0      
 E  R1      
 E  R2      
 E  R3      
 E  R4      
 E  R5      
 E  R6      
 E  R7      
 E  R8      
 E  R9      
 E  R10     
COLUMNS
    MARKER    'MARKER'                 'INTORG'
    I0(6)     OBJ       -72
    I0(6)     R0        53
    I0(6)     R1        14
    I0(6)     R3        13
    I0(6)     R4        6
    I0(6)     R5        7
    I0(6)     R10       1
    I1(5)     OBJ       -6
    I1(5)     R0        70
    I1(5)     R3        16
    I1(5)     R4        -1
    I1(5)     R5        10
    I1(5)     R10       1
    I2(4)     OBJ       184
    I2(4)     R0        -133
    I2(4)     R4        11
    I2(4)     R6        15
    I2(4)     R10       1
    I3(6)     OBJ       193
    I3(6)     R0        -61
    I3(6)     R2        16
    I3(6)     R3        19
    I3(6)     R5        18
    I3(6)     R6        18
    I3(6)     R10       1
    I4(5)     OBJ       20
    I4(5)     R0        122
    I4(5)     R1        7
    I4(5)     R5        14
    I4(5)     R6        9
    I4(5)     R10       1
    I5(3)     OBJ       43
    I5(3)     R0        -89
    I5(3)     R4        3
    I5(3)     R10       1
    MARKER    'MARKER'                 'INTEND'
    C6(4)     R0        -3
    C6(4)     R1        18
    C6(4)     R3        16
    C6(4)     R8        8
    C7(7)     OBJ       2
    C7(7)     R0        5
    C7(7)     R1        6
    C7(7)     R2        3
    C7(7)     R3        2
    C7(7)     R6        4
    C7(7)     R7        18
    C7(7)     R8        8
    C8(5)     OBJ       -10
    C8(5)     R0        -5
    C8(5)     R1        2
    C8(5)     R3        3
    C8(5)     R6        17
    C8(5)     R9        1
    C9(5)     OBJ       -1
    C9(5)     R0        3
    C9(5)     R2        14
    C9(5)     R3        18
    C9(5)     R4        14
    C9(5)     R9        7
    C10(1)    R1        1
    C11(1)    R2        1
    C12(1)    R3        1
    C13(1)    R4        1
    C14(1)    R5        1
    C15(1)    R6        1
    C16(1)    R7        1
    C17(1)    R8        1
    C18(1)    R9        1
    C19(1)    R10       1
RHS
    RHS1      R0        1.0733333333333229e+02
    RHS1      R1        56
    RHS1      R2        80
    RHS1      R3        67
    RHS1      R4        57
    RHS1      R5        78
    RHS1      R6        68
    RHS1      R7        54
    RHS1      R8        86
    RHS1      R9        70
    RHS1      R10       2
BOUNDS
 UP BND1      I0(6)     1
 UP BND1      I1(5)     1
 UP BND1      I2(4)     1
 UP BND1      I3(6)     1
 UP BND1      I4(5)     1
 UP BND1      I5(3)     1
ENDATA
